sat
(:eliminated-applications 675
 :eliminated-vars         6685
 :max-memory              67.47
 :memory                  55.77
 :nlsat-conflicts         228
 :nlsat-decisions         106
 :nlsat-learned-added     197
 :nlsat-learned-deleted   39
 :nlsat-propagations      42458
 :nlsat-restarts          1
 :nlsat-stages            141921
 :num-allocs              606007068
 :rlimit-count            4073249
 :time                    89.17
 :total-time              89.12)
